(set-info :smt-lib-version 2.6)
(set-logic QF_S)
(set-info :source |
Generated by: Murphy Berzish, Mitja Kulczynski, Federico Mora, Florin Manea, Joel Day, Dirk Nowotka, Vijay Ganesh, Zhengyang Lu
Generated on: 2020-10-01
Description: Translated from a collection of real-world regex queries, AutomataArk, collected by Loris D’Antoni and Fang Wang: https://github.com/lorisdanto/automatark
Application: Evaluate solvers on real-world regex queries
Target solver: Z3str3RE, CVC4, OSTRICH, Z3seq, Z3str3, Z3-Trau
Publications: Berzish, M., Kulczynski, M., Mora, F., Manea, F., Day, J. D., Nowotka, D., & Ganesh, V. (2021, July). An SMT solver for regular expressions and linear arithmetic over string length. In CAV 2021.
|)
(set-info :license "https://creativecommons.org/licenses/by/4.0/")
(set-info :category "industrial")
(set-info :status sat)

(declare-const X String)
(assert (str.in_re X (re.++ (re.union ((_ re.loop 1 1) (re.++ ((_ re.loop 1 1) (re.union (str.to_re "Ctrl+Shift+Alt+") (str.to_re "Ctrl+Shift+") (str.to_re "Ctrl+Alt+") (str.to_re "Shift+Alt+") (str.to_re "Ctrl+") (str.to_re "Alt+"))) ((_ re.loop 1 1) (re.union (re.++ (str.to_re "F1") (re.range "0" "2")) (re.++ (str.to_re "F") (re.range "1" "9")) (re.range "A" "Z") (re.range "a" "z") (re.range "0" "9") (str.to_re "-") (str.to_re "=") (str.to_re "[") (str.to_re "]") (str.to_re "\u{5c}") (str.to_re ";") (str.to_re "'") (str.to_re ",") (str.to_re ".") (str.to_re "/"))))) (re.++ (re.opt (str.to_re "Shift+")) ((_ re.loop 1 1) (re.++ (str.to_re "F") (re.union (re.++ (str.to_re "1") (re.range "0" "2")) (re.range "1" "9")))))) (str.to_re "\u{a}"))))
(assert (not (str.in_re X (re.++ (str.to_re "/&k=") (re.+ (re.range "0" "9")) (str.to_re "&h=/U\u{a}")))))
(assert (not (str.in_re X (re.++ (str.to_re "/filename=") (re.* (re.comp (str.to_re "\u{a}"))) (str.to_re ".xspf/i\u{a}")))))
(assert (not (str.in_re X (re.++ (re.range "1" "9") (re.range "0" "9") (re.range "0" "9") (re.range "0" "9") (str.to_re "\u{a}")))))
(check-sat)

(exit)
